
Value of objective function: 277.5

Actual values of the variables:
x10                  1
x11                  0
x12                  1
x13                  0
x14                  1
x15                  0
x16                  0
x17                  0
x18                  0
x1                   180
x2                   450
x3                   0
x4                   90
x5                   0
x6                   280
x7                   1
x8                   0
x9                   0
